N = 4;

puzzle = array2d(1..N*N, 1..4,[
  2,5,1,7,
  9,3,1,3,
  7,7,7,7,
  6,5,1,7,
  6,6,8,2,
  3,5,7,3,
  6,1,2,3,
  9,9,2,2,
  1,5,3,3,
  1,6,3,8,
  7,5,3,4,
  5,7,0,8,
  5,2,3,5,
  3,3,3,0,
  6,4,7,1,
  4,7,5,3]);  